c instance by G2
c solution = 100000101111011
c Known solution cost is 64
p cnf 15 30
w 8 6 2 5 5 0 5 3 7 1 9 4 5 0 4
14 13 3 0
5 9 -7 0
6 14 1 0
-9 8 12 0
7 12 10 0
-7 1 3 0
15 6 4 0
-9 -10 -6 0
-10 -9 -3 0
8 1 -2 0
-13 7 12 0
10 12 -5 0
10 1 13 0
1 -12 9 0
1 -4 6 0
10 5 -12 0
-12 2 -8 0
-3 -1 14 0
7 11 6 0
-6 -11 -7 0
7 -15 -12 0
8 2 -4 0
-15 9 13 0
9 -7 2 0
-15 -13 -3 0
-5 -13 -11 0
8 -11 10 0
-15 -6 -1 0
-2 -12 -13 0
8 13 -2 0
